decompositions/zmienne_worki/g_100_65_10.td
s td 53 4 100
b 1 8 
b 2 52 64 91 98 
b 3 41 48 87 
b 4 32 
b 5 5 24 27 75 
b 6 49 54 88 
b 7 21 29 44 
b 8 14 97 
b 9 38 
b 10 56 82 
b 11 23 34 89 
b 12 69 77 84 
b 13 2 40 55 100 
b 14 81 
b 15 47 50 62 
b 16 59 
b 17 4 30 
b 18 18 33 
b 19 63 96 
b 20 20 80 
b 21 6 26 
b 22 16 42 
b 23 13 
b 24 57 79 
b 25 68 
b 26 25 
b 27 45 66 
b 28 7 94 
b 29 37 
b 30 67 92 
b 31 65 73 78 
b 32 31 
b 33 83 
b 34 53 
b 35 35 
b 36 11 
b 37 58 
b 38 19 72 74 
b 39 15 
b 40 93 
b 41 3 9 
b 42 28 51 
b 43 76 85 
b 44 12 43 
b 45 70 71 
b 46 17 61 
b 47 10 39 86 
b 48 90 
b 49 1 
b 50 60 95 
b 51 22 99 
b 52 36 
b 53 46 
1 2
1 3
2 4
3 5
4 6
5 7
6 8
7 9
8 10
10 11
11 12
12 13
13 14
14 15
15 16
16 17
17 18
18 19
19 20
20 21
21 22
22 23
23 24
24 25
25 26
26 27
27 28
28 29
29 30
30 31
31 32
32 33
33 34
34 35
35 36
36 37
37 38
38 39
39 40
40 41
41 42
42 43
43 44
44 45
45 46
46 47
47 48
48 49
49 50
50 51
51 52
52 53
