graphs/pace/raport/zmienne_worki/g_100_65_10.gr
p tw 100 65
2 40
2 55
2 100
40 55
40 100
55 100
4 30
63 96
47 50
47 62
50 62
52 64
52 91
52 98
64 91
64 98
91 98
70 71
3 9
49 54
49 88
54 88
41 48
41 87
48 87
76 85
12 43
45 66
57 79
56 82
18 33
19 72
19 74
72 74
17 61
10 39
10 86
39 86
5 24
5 27
5 75
24 27
24 75
27 75
60 95
14 97
16 42
20 80
23 34
23 89
34 89
69 77
69 84
77 84
28 51
21 29
21 44
29 44
67 92
65 73
65 78
73 78
7 94
22 99
6 26
